NAME : XML100_1174_23
DIMENSION : 101
NB_CLUSTERS : 5
CLUSTERING_ALG : KMedoids
CLUSTERING_PARAMS : k(4)
CLUSTERS
1 0
2 2 12 14 17 18 20 26 30 47 49 51 53 55 56 64 68 69 72 88 94
3 1 9 11 16 21 22 23 29 40 41 48 58 59 67 74 76 77 80 83 84 89 92 99 100
4 3 4 7 15 19 24 25 27 31 33 34 35 37 38 39 42 45 46 50 54 60 61 62 73 79 82 86 95 96 97 98
5 5 6 8 10 13 28 32 36 43 44 52 57 63 65 66 70 71 75 78 81 85 87 90 91 93
EOF